AES/1_5_4/ssaes_r1-20_c5_rw1_e4_f0_k1-20_aes_min_box_aes_mc_bidirectional/ExperimentMinisat_r3_k5cnf_2011-10-29-173611/Result
WARNING: for repeatability, setting FPU to use double precision
============================[ Problem Statistics ]=============================
|                                                                             |
|  Number of variables:           324                                         |
|  Number of clauses:            1196                                         |
|  Parse time:                   0.00 s                                       |
|  Eliminated clauses:           0.00 Mb                                      |
|  Simplification time:          0.00 s                                       |
|                                                                             |
=============================[ Search Statistics ]==============================
| Conflicts  |          ORIGINAL         |          LEARNT          | Progress |
|            |    Vars  Clauses Literals |    Limit  Clauses Lit/Cl |          |
================================================================================
|        100 |     192      836     2756 |      306      100     11 | 16.051 % |
|        250 |     192      836     2756 |      337      250     12 | 16.050 % |
|        475 |     192      836     2756 |      370      275      9 | 16.050 % |
===============================================================================
restarts              : 6
conflicts             : 611            (67904 /sec)
decisions             : 761            (0.00 % random) (84574 /sec)
propagations          : 31143          (3461102 /sec)
conflict literals     : 6820           (20.88 % deleted)
Memory used           : 8.00 MB
CPU time              : 0.008998 s

SATISFIABLE
